certificates/rado_a13_c194_N24.cnf
c Rad2 upper bound instance: x1 + 13*x2 - x3 = 194, interval [1,24]
p cnf 24 90
1 2 15 0
-1 -2 -15 0
1 15 16 0
-1 -15 -16 0
2 3 15 0
-2 -3 -15 0
2 16 0
-2 -16 0
3 4 15 0
-3 -4 -15 0
3 16 17 0
-3 -16 -17 0
4 5 15 0
-4 -5 -15 0
4 16 18 0
-4 -16 -18 0
5 6 15 0
-5 -6 -15 0
5 16 19 0
-5 -16 -19 0
6 7 15 0
-6 -7 -15 0
6 16 20 0
-6 -16 -20 0
7 8 15 0
-7 -8 -15 0
7 16 21 0
-7 -16 -21 0
8 9 15 0
-8 -9 -15 0
8 16 22 0
-8 -16 -22 0
9 10 15 0
-9 -10 -15 0
9 16 23 0
-9 -16 -23 0
10 11 15 0
-10 -11 -15 0
10 16 24 0
-10 -16 -24 0
11 12 15 0
-11 -12 -15 0
12 13 15 0
-12 -13 -15 0
1 13 14 0
-1 -13 -14 0
13 14 15 0
-13 -14 -15 0
2 14 0
-2 -14 0
14 15 0
-14 -15 0
3 14 15 0
-3 -14 -15 0
15 16 0
-15 -16 0
4 14 16 0
-4 -14 -16 0
15 16 17 0
-15 -16 -17 0
5 14 17 0
-5 -14 -17 0
15 17 18 0
-15 -17 -18 0
6 14 18 0
-6 -14 -18 0
15 18 19 0
-15 -18 -19 0
7 14 19 0
-7 -14 -19 0
15 19 20 0
-15 -19 -20 0
8 14 20 0
-8 -14 -20 0
15 20 21 0
-15 -20 -21 0
9 14 21 0
-9 -14 -21 0
15 21 22 0
-15 -21 -22 0
10 14 22 0
-10 -14 -22 0
15 22 23 0
-15 -22 -23 0
11 14 23 0
-11 -14 -23 0
15 23 24 0
-15 -23 -24 0
12 14 24 0
-12 -14 -24 0
