certificates/rado_a13_c194_N24.drat
-23 -24 0
d -23 -15 -24 0
-16 -24 0
-24 0
16 0
-2 0
-15 0
1 0
3 0
14 0
23 0
-13 0
-17 0
-4 0
-11 0
-9 0
12 0
18 0
5 0
10 0
8 0
-6 0
-19 0
-22 0
-20 0
7 0
0
